(set-logic QF_LRA)
(declare-fun parameter_unload_at_depot_r@1 () Real)
(declare-fun fluent_robot_at_r0_p0@0 () Bool)
(declare-fun fluent_robot_at_r1_p0@0 () Bool)
(declare-fun fluent_robot_at_r0_p1@0 () Bool)
(declare-fun fluent_robot_free_r0@0 () Bool)
(declare-fun fluent_robot_free_r1@0 () Bool)
(declare-fun fluent_robot_at_r1_p1@0 () Bool)
(declare-fun parameter_unload_at_depot_pallet@1 () Real)
(declare-fun fluent_pallet_at_plt0_p0@0 () Bool)
(declare-fun fluent_pallet_at_plt1_p0@0 () Bool)
(declare-fun fluent_pallet_at_plt0_p1@0 () Bool)
(declare-fun fluent_pallet_at_plt1_p1@0 () Bool)
(declare-fun fluent_battery_level_r0@0 () Real)
(declare-fun fluent_battery_level_r1@0 () Real)
(declare-fun fluent_position_free_p0@0 () Bool)
(declare-fun fluent_position_free_p1@0 () Bool)
(declare-fun dur_make_treatment@1 () Real)
(declare-fun fluent_robot_has_r0_plt0@0 () Bool)
(declare-fun fluent_robot_has_r1_plt0@0 () Bool)
(declare-fun fluent_robot_has_r0_plt1@0 () Bool)
(declare-fun fluent_robot_has_r1_plt1@0 () Bool)
(declare-fun t@1 () Real)
(declare-fun fluent_ready_plt0_p0_t0@0 () Bool)
(declare-fun fluent_ready_plt1_p0_t0@0 () Bool)
(declare-fun fluent_ready_plt0_p1_t0@0 () Bool)
(declare-fun fluent_ready_plt1_p1_t0@0 () Bool)
(declare-fun parameter_make_treatment_t@1 () Real)
(declare-fun parameter_make_treatment_pallet@1 () Real)
(declare-fun fluent_treated_plt0_t0@0 () Bool)
(declare-fun fluent_treated_plt1_t0@0 () Bool)
(declare-fun parameter_make_treatment_r@1 () Real)
(declare-fun act_move@1 () Bool)
(declare-fun parameter_move_topos@1 () Real)
(declare-fun parameter_make_treatment_pos@1 () Real)
(declare-fun parameter_move_frompos@1 () Real)
(declare-fun parameter_move_r@1 () Real)
(declare-fun fluent_robot_at_r0_p0@1 () Bool)
(declare-fun fluent_robot_at_r1_p0@1 () Bool)
(declare-fun fluent_robot_at_r0_p1@1 () Bool)
(declare-fun fluent_robot_at_r1_p1@1 () Bool)
(declare-fun fluent_battery_level_r0@1 () Real)
(declare-fun fluent_battery_level_r1@1 () Real)
(declare-fun act_make_treatment@1 () Bool)
(declare-fun act_load@1 () Bool)
(declare-fun parameter_load_t@1 () Real)
(declare-fun parameter_load_pos@1 () Real)
(declare-fun parameter_load_pallet@1 () Real)
(declare-fun parameter_load_r@1 () Real)
(declare-fun fluent_robot_free_r0@1 () Bool)
(declare-fun fluent_robot_free_r1@1 () Bool)
(declare-fun fluent_ready_plt0_p0_t0@1 () Bool)
(declare-fun fluent_ready_plt1_p0_t0@1 () Bool)
(declare-fun fluent_ready_plt0_p1_t0@1 () Bool)
(declare-fun fluent_ready_plt1_p1_t0@1 () Bool)
(declare-fun fluent_pallet_at_plt0_p0@1 () Bool)
(declare-fun fluent_pallet_at_plt1_p0@1 () Bool)
(declare-fun fluent_pallet_at_plt0_p1@1 () Bool)
(declare-fun fluent_pallet_at_plt1_p1@1 () Bool)
(declare-fun fluent_robot_has_r0_plt0@1 () Bool)
(declare-fun fluent_robot_has_r1_plt0@1 () Bool)
(declare-fun fluent_robot_has_r0_plt1@1 () Bool)
(declare-fun fluent_robot_has_r1_plt1@1 () Bool)
(declare-fun fluent_treated_plt0_t0@1 () Bool)
(declare-fun fluent_treated_plt1_t0@1 () Bool)
(declare-fun fluent_position_free_p0@1 () Bool)
(declare-fun fluent_position_free_p1@1 () Bool)
(declare-fun act_load_at_depot@1 () Bool)
(declare-fun parameter_load_at_depot_pos@1 () Real)
(declare-fun parameter_load_at_depot_r@1 () Real)
(declare-fun parameter_load_at_depot_pallet@1 () Real)
(declare-fun act_unload_at_depot@1 () Bool)
(declare-fun parameter_unload_at_depot_pos@1 () Real)
(assert (let ((.def_0 (<= fluent_battery_level_r1@1 100.0))) (let ((.def_1 (<= 0.0 fluent_battery_level_r1@1))) (let ((.def_2 (<= fluent_battery_level_r0@1 100.0))) (let ((.def_3 (<= 0.0 fluent_battery_level_r0@1))) (let ((.def_4 (= parameter_load_at_depot_pallet@1 5.0))) (let ((.def_5 (= parameter_load_at_depot_pallet@1 4.0))) (let ((.def_6 (or .def_5 .def_4))) (let ((.def_7 (= parameter_load_at_depot_r@1 1.0))) (let ((.def_8 (= parameter_load_at_depot_r@1 0.0))) (let ((.def_9 (or .def_8 .def_7))) (let ((.def_10 (= parameter_load_at_depot_pos@1 3.0))) (let ((.def_11 (= parameter_load_at_depot_pos@1 2.0))) (let ((.def_12 (or .def_11 .def_10))) (let ((.def_13 (= parameter_move_r@1 1.0))) (let ((.def_14 (= parameter_move_r@1 0.0))) (let ((.def_15 (or .def_14 .def_13))) (let ((.def_16 (= parameter_move_frompos@1 3.0))) (let ((.def_17 (= parameter_move_frompos@1 2.0))) (let ((.def_18 (or .def_17 .def_16))) (let ((.def_19 (= parameter_make_treatment_pos@1 3.0))) (let ((.def_20 (= parameter_make_treatment_pos@1 2.0))) (let ((.def_21 (or .def_20 .def_19))) (let ((.def_22 (= parameter_move_topos@1 3.0))) (let ((.def_23 (= parameter_move_topos@1 2.0))) (let ((.def_24 (or .def_23 .def_22))) (let ((.def_25 (= parameter_make_treatment_r@1 1.0))) (let ((.def_26 (= parameter_make_treatment_r@1 0.0))) (let ((.def_27 (or .def_26 .def_25))) (let ((.def_28 (= parameter_make_treatment_pallet@1 5.0))) (let ((.def_29 (= parameter_make_treatment_pallet@1 4.0))) (let ((.def_30 (or .def_29 .def_28))) (let ((.def_31 (= parameter_make_treatment_t@1 6.0))) (let ((.def_32 (= parameter_load_r@1 1.0))) (let ((.def_33 (= parameter_load_r@1 0.0))) (let ((.def_34 (or .def_33 .def_32))) (let ((.def_35 (= parameter_unload_at_depot_pallet@1 5.0))) (let ((.def_36 (= parameter_unload_at_depot_pallet@1 4.0))) (let ((.def_37 (or .def_36 .def_35))) (let ((.def_38 (= parameter_load_pallet@1 5.0))) (let ((.def_39 (= parameter_load_pallet@1 4.0))) (let ((.def_40 (or .def_39 .def_38))) (let ((.def_41 (= parameter_unload_at_depot_r@1 1.0))) (let ((.def_42 (= parameter_unload_at_depot_r@1 0.0))) (let ((.def_43 (or .def_42 .def_41))) (let ((.def_44 (= parameter_load_pos@1 3.0))) (let ((.def_45 (= parameter_load_pos@1 2.0))) (let ((.def_46 (or .def_45 .def_44))) (let ((.def_47 (= parameter_unload_at_depot_pos@1 3.0))) (let ((.def_48 (= parameter_unload_at_depot_pos@1 2.0))) (let ((.def_49 (or .def_48 .def_47))) (let ((.def_50 (= parameter_load_t@1 6.0))) (let ((.def_51 (and act_move@1 true .def_13))) (let ((.def_52 (= fluent_battery_level_r1@0 fluent_battery_level_r1@1))) (let ((.def_53 (not .def_52))) (let ((.def_54 (=> .def_53 .def_51))) (let ((.def_55 (and act_move@1 true .def_14))) (let ((.def_56 (= fluent_battery_level_r0@0 fluent_battery_level_r0@1))) (let ((.def_57 (not .def_56))) (let ((.def_58 (=> .def_57 .def_55))) (let ((.def_59 (and act_make_treatment@1 true .def_28 .def_19))) (let ((.def_60 (and act_unload_at_depot@1 true .def_35 .def_47))) (let ((.def_61 (and .def_60 .def_59))) (let ((.def_62 (not .def_61))) (let ((.def_63 (and act_load_at_depot@1 true .def_4 .def_10))) (let ((.def_64 (and .def_63 .def_59))) (let ((.def_65 (not .def_64))) (let ((.def_66 (and .def_63 .def_60))) (let ((.def_67 (not .def_66))) (let ((.def_68 (and act_load@1 true .def_38 .def_44))) (let ((.def_69 (and .def_68 .def_59))) (let ((.def_70 (not .def_69))) (let ((.def_71 (and .def_68 .def_60))) (let ((.def_72 (not .def_71))) (let ((.def_73 (and .def_68 .def_63))) (let ((.def_74 (not .def_73))) (let ((.def_75 (or .def_68 .def_63 .def_60 .def_59))) (let ((.def_76 (= fluent_pallet_at_plt1_p1@0 fluent_pallet_at_plt1_p1@1))) (let ((.def_77 (not .def_76))) (let ((.def_78 (=> .def_77 .def_75))) (let ((.def_79 (and act_make_treatment@1 true .def_29 .def_19))) (let ((.def_80 (and act_unload_at_depot@1 true .def_36 .def_47))) (let ((.def_81 (and .def_80 .def_79))) (let ((.def_82 (not .def_81))) (let ((.def_83 (and act_load_at_depot@1 true .def_5 .def_10))) (let ((.def_84 (and .def_83 .def_79))) (let ((.def_85 (not .def_84))) (let ((.def_86 (and .def_83 .def_80))) (let ((.def_87 (not .def_86))) (let ((.def_88 (and act_load@1 true .def_39 .def_44))) (let ((.def_89 (and .def_88 .def_79))) (let ((.def_90 (not .def_89))) (let ((.def_91 (and .def_88 .def_80))) (let ((.def_92 (not .def_91))) (let ((.def_93 (and .def_88 .def_83))) (let ((.def_94 (not .def_93))) (let ((.def_95 (or .def_88 .def_83 .def_80 .def_79))) (let ((.def_96 (= fluent_pallet_at_plt0_p1@0 fluent_pallet_at_plt0_p1@1))) (let ((.def_97 (not .def_96))) (let ((.def_98 (=> .def_97 .def_95))) (let ((.def_99 (and act_make_treatment@1 true .def_28 .def_20))) (let ((.def_100 (and act_unload_at_depot@1 true .def_35 .def_48))) (let ((.def_101 (and .def_100 .def_99))) (let ((.def_102 (not .def_101))) (let ((.def_103 (and act_load_at_depot@1 true .def_4 .def_11))) (let ((.def_104 (and .def_103 .def_99))) (let ((.def_105 (not .def_104))) (let ((.def_106 (and .def_103 .def_100))) (let ((.def_107 (not .def_106))) (let ((.def_108 (and act_load@1 true .def_38 .def_45))) (let ((.def_109 (and .def_108 .def_99))) (let ((.def_110 (not .def_109))) (let ((.def_111 (and .def_108 .def_100))) (let ((.def_112 (not .def_111))) (let ((.def_113 (and .def_108 .def_103))) (let ((.def_114 (not .def_113))) (let ((.def_115 (or .def_108 .def_103 .def_100 .def_99))) (let ((.def_116 (= fluent_pallet_at_plt1_p0@0 fluent_pallet_at_plt1_p0@1))) (let ((.def_117 (not .def_116))) (let ((.def_118 (=> .def_117 .def_115))) (let ((.def_119 (and act_make_treatment@1 true .def_29 .def_20))) (let ((.def_120 (and act_unload_at_depot@1 true .def_36 .def_48))) (let ((.def_121 (and .def_120 .def_119))) (let ((.def_122 (not .def_121))) (let ((.def_123 (and act_load_at_depot@1 true .def_5 .def_11))) (let ((.def_124 (and .def_123 .def_119))) (let ((.def_125 (not .def_124))) (let ((.def_126 (and .def_123 .def_120))) (let ((.def_127 (not .def_126))) (let ((.def_128 (and act_load@1 true .def_39 .def_45))) (let ((.def_129 (and .def_128 .def_119))) (let ((.def_130 (not .def_129))) (let ((.def_131 (and .def_128 .def_120))) (let ((.def_132 (not .def_131))) (let ((.def_133 (and .def_128 .def_123))) (let ((.def_134 (not .def_133))) (let ((.def_135 (or .def_128 .def_123 .def_120 .def_119))) (let ((.def_136 (= fluent_pallet_at_plt0_p0@0 fluent_pallet_at_plt0_p0@1))) (let ((.def_137 (not .def_136))) (let ((.def_138 (=> .def_137 .def_135))) (let ((.def_139 (and act_load@1 true .def_38 .def_50))) (let ((.def_140 (= fluent_treated_plt1_t0@0 fluent_treated_plt1_t0@1))) (let ((.def_141 (not .def_140))) (let ((.def_142 (=> .def_141 .def_139))) (let ((.def_143 (and act_load@1 true .def_39 .def_50))) (let ((.def_144 (= fluent_treated_plt0_t0@0 fluent_treated_plt0_t0@1))) (let ((.def_145 (not .def_144))) (let ((.def_146 (=> .def_145 .def_143))) (let ((.def_147 (and act_make_treatment@1 true .def_19))) (let ((.def_148 (and act_load@1 true .def_44))) (let ((.def_149 (and .def_148 .def_147))) (let ((.def_150 (not .def_149))) (let ((.def_151 (or .def_148 .def_147))) (let ((.def_152 (= fluent_position_free_p1@0 fluent_position_free_p1@1))) (let ((.def_153 (not .def_152))) (let ((.def_154 (=> .def_153 .def_151))) (let ((.def_155 (and act_make_treatment@1 true .def_20))) (let ((.def_156 (and act_load@1 true .def_45))) (let ((.def_157 (and .def_156 .def_155))) (let ((.def_158 (not .def_157))) (let ((.def_159 (or .def_156 .def_155))) (let ((.def_160 (= fluent_position_free_p0@0 fluent_position_free_p0@1))) (let ((.def_161 (not .def_160))) (let ((.def_162 (=> .def_161 .def_159))) (let ((.def_163 (+ t@1 10.0))) (let ((.def_164 (= t@1 .def_163))) (let ((.def_165 (and act_make_treatment@1 true .def_164 .def_28 .def_19 .def_31))) (let ((.def_166 (and act_load@1 true .def_38 .def_44 .def_50))) (let ((.def_167 (and .def_166 .def_165))) (let ((.def_168 (not .def_167))) (let ((.def_169 (or .def_166 .def_165))) (let ((.def_170 (= fluent_ready_plt1_p1_t0@0 fluent_ready_plt1_p1_t0@1))) (let ((.def_171 (not .def_170))) (let ((.def_172 (=> .def_171 .def_169))) (let ((.def_173 (and act_make_treatment@1 true .def_164 .def_29 .def_19 .def_31))) (let ((.def_174 (and act_load@1 true .def_39 .def_44 .def_50))) (let ((.def_175 (and .def_174 .def_173))) (let ((.def_176 (not .def_175))) (let ((.def_177 (or .def_174 .def_173))) (let ((.def_178 (= fluent_ready_plt0_p1_t0@0 fluent_ready_plt0_p1_t0@1))) (let ((.def_179 (not .def_178))) (let ((.def_180 (=> .def_179 .def_177))) (let ((.def_181 (and act_make_treatment@1 true .def_164 .def_28 .def_20 .def_31))) (let ((.def_182 (and act_load@1 true .def_38 .def_45 .def_50))) (let ((.def_183 (and .def_182 .def_181))) (let ((.def_184 (not .def_183))) (let ((.def_185 (or .def_182 .def_181))) (let ((.def_186 (= fluent_ready_plt1_p0_t0@0 fluent_ready_plt1_p0_t0@1))) (let ((.def_187 (not .def_186))) (let ((.def_188 (=> .def_187 .def_185))) (let ((.def_189 (and act_make_treatment@1 true .def_164 .def_29 .def_20 .def_31))) (let ((.def_190 (and act_load@1 true .def_39 .def_45 .def_50))) (let ((.def_191 (and .def_190 .def_189))) (let ((.def_192 (not .def_191))) (let ((.def_193 (or .def_190 .def_189))) (let ((.def_194 (= fluent_ready_plt0_p0_t0@0 fluent_ready_plt0_p0_t0@1))) (let ((.def_195 (not .def_194))) (let ((.def_196 (=> .def_195 .def_193))) (let ((.def_197 (and act_make_treatment@1 true .def_25 .def_28))) (let ((.def_198 (and act_unload_at_depot@1 true .def_41 .def_35))) (let ((.def_199 (and .def_198 .def_197))) (let ((.def_200 (not .def_199))) (let ((.def_201 (and act_load_at_depot@1 true .def_7 .def_4))) (let ((.def_202 (and .def_201 .def_197))) (let ((.def_203 (not .def_202))) (let ((.def_204 (and .def_201 .def_198))) (let ((.def_205 (not .def_204))) (let ((.def_206 (and act_load@1 true .def_32 .def_38))) (let ((.def_207 (and .def_206 .def_197))) (let ((.def_208 (not .def_207))) (let ((.def_209 (and .def_206 .def_198))) (let ((.def_210 (not .def_209))) (let ((.def_211 (and .def_206 .def_201))) (let ((.def_212 (not .def_211))) (let ((.def_213 (or .def_206 .def_201 .def_198 .def_197))) (let ((.def_214 (= fluent_robot_has_r1_plt1@0 fluent_robot_has_r1_plt1@1))) (let ((.def_215 (not .def_214))) (let ((.def_216 (=> .def_215 .def_213))) (let ((.def_217 (and act_make_treatment@1 true .def_26 .def_28))) (let ((.def_218 (and act_unload_at_depot@1 true .def_42 .def_35))) (let ((.def_219 (and .def_218 .def_217))) (let ((.def_220 (not .def_219))) (let ((.def_221 (and act_load_at_depot@1 true .def_8 .def_4))) (let ((.def_222 (and .def_221 .def_217))) (let ((.def_223 (not .def_222))) (let ((.def_224 (and .def_221 .def_218))) (let ((.def_225 (not .def_224))) (let ((.def_226 (and act_load@1 true .def_33 .def_38))) (let ((.def_227 (and .def_226 .def_217))) (let ((.def_228 (not .def_227))) (let ((.def_229 (and .def_226 .def_218))) (let ((.def_230 (not .def_229))) (let ((.def_231 (and .def_226 .def_221))) (let ((.def_232 (not .def_231))) (let ((.def_233 (or .def_226 .def_221 .def_218 .def_217))) (let ((.def_234 (= fluent_robot_has_r0_plt1@0 fluent_robot_has_r0_plt1@1))) (let ((.def_235 (not .def_234))) (let ((.def_236 (=> .def_235 .def_233))) (let ((.def_237 (and act_make_treatment@1 true .def_25 .def_29))) (let ((.def_238 (and act_unload_at_depot@1 true .def_41 .def_36))) (let ((.def_239 (and .def_238 .def_237))) (let ((.def_240 (not .def_239))) (let ((.def_241 (and act_load_at_depot@1 true .def_7 .def_5))) (let ((.def_242 (and .def_241 .def_237))) (let ((.def_243 (not .def_242))) (let ((.def_244 (and .def_241 .def_238))) (let ((.def_245 (not .def_244))) (let ((.def_246 (and act_load@1 true .def_32 .def_39))) (let ((.def_247 (and .def_246 .def_237))) (let ((.def_248 (not .def_247))) (let ((.def_249 (and .def_246 .def_238))) (let ((.def_250 (not .def_249))) (let ((.def_251 (and .def_246 .def_241))) (let ((.def_252 (not .def_251))) (let ((.def_253 (or .def_246 .def_241 .def_238 .def_237))) (let ((.def_254 (= fluent_robot_has_r1_plt0@0 fluent_robot_has_r1_plt0@1))) (let ((.def_255 (not .def_254))) (let ((.def_256 (=> .def_255 .def_253))) (let ((.def_257 (and act_make_treatment@1 true .def_26 .def_29))) (let ((.def_258 (and act_unload_at_depot@1 true .def_42 .def_36))) (let ((.def_259 (and .def_258 .def_257))) (let ((.def_260 (not .def_259))) (let ((.def_261 (and act_load_at_depot@1 true .def_8 .def_5))) (let ((.def_262 (and .def_261 .def_257))) (let ((.def_263 (not .def_262))) (let ((.def_264 (and .def_261 .def_258))) (let ((.def_265 (not .def_264))) (let ((.def_266 (and act_load@1 true .def_33 .def_39))) (let ((.def_267 (and .def_266 .def_257))) (let ((.def_268 (not .def_267))) (let ((.def_269 (and .def_266 .def_258))) (let ((.def_270 (not .def_269))) (let ((.def_271 (and .def_266 .def_261))) (let ((.def_272 (not .def_271))) (let ((.def_273 (or .def_266 .def_261 .def_258 .def_257))) (let ((.def_274 (= fluent_robot_has_r0_plt0@0 fluent_robot_has_r0_plt0@1))) (let ((.def_275 (not .def_274))) (let ((.def_276 (=> .def_275 .def_273))) (let ((.def_277 (and act_make_treatment@1 true .def_25))) (let ((.def_278 (and act_unload_at_depot@1 true .def_41))) (let ((.def_279 (and .def_278 .def_277))) (let ((.def_280 (not .def_279))) (let ((.def_281 (and act_load_at_depot@1 true .def_7))) (let ((.def_282 (and .def_281 .def_277))) (let ((.def_283 (not .def_282))) (let ((.def_284 (and .def_281 .def_278))) (let ((.def_285 (not .def_284))) (let ((.def_286 (and act_load@1 true .def_32))) (let ((.def_287 (and .def_286 .def_277))) (let ((.def_288 (not .def_287))) (let ((.def_289 (and .def_286 .def_278))) (let ((.def_290 (not .def_289))) (let ((.def_291 (and .def_286 .def_281))) (let ((.def_292 (not .def_291))) (let ((.def_293 (or .def_286 .def_281 .def_278 .def_277))) (let ((.def_294 (= fluent_robot_free_r1@0 fluent_robot_free_r1@1))) (let ((.def_295 (not .def_294))) (let ((.def_296 (=> .def_295 .def_293))) (let ((.def_297 (and act_make_treatment@1 true .def_26))) (let ((.def_298 (and act_unload_at_depot@1 true .def_42))) (let ((.def_299 (and .def_298 .def_297))) (let ((.def_300 (not .def_299))) (let ((.def_301 (and act_load_at_depot@1 true .def_8))) (let ((.def_302 (and .def_301 .def_297))) (let ((.def_303 (not .def_302))) (let ((.def_304 (and .def_301 .def_298))) (let ((.def_305 (not .def_304))) (let ((.def_306 (and act_load@1 true .def_33))) (let ((.def_307 (and .def_306 .def_297))) (let ((.def_308 (not .def_307))) (let ((.def_309 (and .def_306 .def_298))) (let ((.def_310 (not .def_309))) (let ((.def_311 (and .def_306 .def_301))) (let ((.def_312 (not .def_311))) (let ((.def_313 (or .def_306 .def_301 .def_298 .def_297))) (let ((.def_314 (= fluent_robot_free_r0@0 fluent_robot_free_r0@1))) (let ((.def_315 (not .def_314))) (let ((.def_316 (=> .def_315 .def_313))) (let ((.def_317 (and act_move@1 true .def_13 .def_16))) (let ((.def_318 (and act_move@1 true .def_13 .def_22))) (let ((.def_319 (and .def_318 .def_317))) (let ((.def_320 (not .def_319))) (let ((.def_321 (or .def_318 .def_317))) (let ((.def_322 (= fluent_robot_at_r1_p1@0 fluent_robot_at_r1_p1@1))) (let ((.def_323 (not .def_322))) (let ((.def_324 (=> .def_323 .def_321))) (let ((.def_325 (and act_move@1 true .def_14 .def_16))) (let ((.def_326 (and act_move@1 true .def_14 .def_22))) (let ((.def_327 (and .def_326 .def_325))) (let ((.def_328 (not .def_327))) (let ((.def_329 (or .def_326 .def_325))) (let ((.def_330 (= fluent_robot_at_r0_p1@0 fluent_robot_at_r0_p1@1))) (let ((.def_331 (not .def_330))) (let ((.def_332 (=> .def_331 .def_329))) (let ((.def_333 (and act_move@1 true .def_13 .def_17))) (let ((.def_334 (and act_move@1 true .def_13 .def_23))) (let ((.def_335 (and .def_334 .def_333))) (let ((.def_336 (not .def_335))) (let ((.def_337 (or .def_334 .def_333))) (let ((.def_338 (= fluent_robot_at_r1_p0@0 fluent_robot_at_r1_p0@1))) (let ((.def_339 (not .def_338))) (let ((.def_340 (=> .def_339 .def_337))) (let ((.def_341 (and act_move@1 true .def_14 .def_17))) (let ((.def_342 (and act_move@1 true .def_14 .def_23))) (let ((.def_343 (and .def_342 .def_341))) (let ((.def_344 (not .def_343))) (let ((.def_345 (or .def_342 .def_341))) (let ((.def_346 (= fluent_robot_at_r0_p0@0 fluent_robot_at_r0_p0@1))) (let ((.def_347 (not .def_346))) (let ((.def_348 (=> .def_347 .def_345))) (let ((.def_349 (and .def_348 .def_344 .def_340 .def_336 .def_332 .def_328 .def_324 .def_320 .def_316 .def_312 .def_310 .def_308 .def_305 .def_303 .def_300 .def_296 .def_292 .def_290 .def_288 .def_285 .def_283 .def_280 .def_276 .def_272 .def_270 .def_268 .def_265 .def_263 .def_260 .def_256 .def_252 .def_250 .def_248 .def_245 .def_243 .def_240 .def_236 .def_232 .def_230 .def_228 .def_225 .def_223 .def_220 .def_216 .def_212 .def_210 .def_208 .def_205 .def_203 .def_200 .def_196 .def_192 .def_188 .def_184 .def_180 .def_176 .def_172 .def_168 .def_162 .def_158 .def_154 .def_150 .def_146 .def_142 .def_138 .def_134 .def_132 .def_130 .def_127 .def_125 .def_122 .def_118 .def_114 .def_112 .def_110 .def_107 .def_105 .def_102 .def_98 .def_94 .def_92 .def_90 .def_87 .def_85 .def_82 .def_78 .def_74 .def_72 .def_70 .def_67 .def_65 .def_62 .def_58 .def_54))) (let ((.def_350 (= t@1 t@1))) (let ((.def_351 (and act_load@1 act_unload_at_depot@1 .def_350))) (let ((.def_352 (not .def_351))) (let ((.def_353 (and act_make_treatment@1 act_move@1 .def_350))) (let ((.def_354 (not .def_353))) (let ((.def_355 (and act_load@1 act_make_treatment@1 .def_164))) (let ((.def_356 (not .def_355))) (let ((.def_357 (and act_load_at_depot@1 act_unload_at_depot@1 .def_350))) (let ((.def_358 (not .def_357))) (let ((.def_359 (and act_make_treatment@1 act_load@1 .def_350))) (let ((.def_360 (not .def_359))) (let ((.def_361 (and act_move@1 act_load_at_depot@1 .def_350))) (let ((.def_362 (not .def_361))) (let ((.def_363 (and act_make_treatment@1 act_unload_at_depot@1 .def_350))) (let ((.def_364 (not .def_363))) (let ((.def_365 (and act_load@1 act_load_at_depot@1 .def_350))) (let ((.def_366 (not .def_365))) (let ((.def_367 (and act_make_treatment@1 act_load_at_depot@1 .def_350))) (let ((.def_368 (not .def_367))) (let ((.def_369 (and act_move@1 act_unload_at_depot@1 .def_350))) (let ((.def_370 (not .def_369))) (let ((.def_371 (+ t@1 dur_make_treatment@1))) (let ((.def_372 (= t@1 .def_371))) (let ((.def_373 (and act_load@1 act_make_treatment@1 .def_372))) (let ((.def_374 (not .def_373))) (let ((.def_375 (and act_load@1 act_move@1 .def_350))) (let ((.def_376 (not .def_375))) (let ((.def_377 (and .def_376 .def_374 .def_370 .def_368 .def_366 .def_364 .def_362 .def_360 .def_358 .def_356 .def_354 .def_352))) (let ((.def_378 (<= 0.0 t@1))) (let ((.def_379 (and .def_28 .def_20 .def_31))) (let ((.def_380 (ite .def_379 fluent_ready_plt1_p0_t0@1 fluent_ready_plt0_p0_t0@1))) (let ((.def_381 (and .def_29 .def_19 .def_31))) (let ((.def_382 (ite .def_381 fluent_ready_plt0_p1_t0@1 .def_380))) (let ((.def_383 (and .def_28 .def_19 .def_31))) (let ((.def_384 (ite .def_383 fluent_ready_plt1_p1_t0@1 .def_382))) (let ((.def_385 (= .def_384 true))) (let ((.def_386 (=> true .def_385))) (let ((.def_387 (and .def_164 .def_386))) (let ((.def_388 (ite .def_25 fluent_robot_free_r1@1 fluent_robot_free_r0@1))) (let ((.def_389 (= .def_388 true))) (let ((.def_390 (=> true .def_389))) (let ((.def_391 (and .def_28 .def_20))) (let ((.def_392 (ite .def_391 fluent_pallet_at_plt1_p0@1 fluent_pallet_at_plt0_p0@1))) (let ((.def_393 (and .def_29 .def_19))) (let ((.def_394 (ite .def_393 fluent_pallet_at_plt0_p1@1 .def_392))) (let ((.def_395 (and .def_28 .def_19))) (let ((.def_396 (ite .def_395 fluent_pallet_at_plt1_p1@1 .def_394))) (let ((.def_397 (= .def_396 true))) (let ((.def_398 (=> true .def_397))) (let ((.def_399 (and .def_25 .def_29))) (let ((.def_400 (ite .def_399 fluent_robot_has_r1_plt0@1 fluent_robot_has_r0_plt0@1))) (let ((.def_401 (and .def_26 .def_28))) (let ((.def_402 (ite .def_401 fluent_robot_has_r0_plt1@1 .def_400))) (let ((.def_403 (and .def_25 .def_28))) (let ((.def_404 (ite .def_403 fluent_robot_has_r1_plt1@1 .def_402))) (let ((.def_405 (= .def_404 false))) (let ((.def_406 (=> true .def_405))) (let ((.def_407 (ite .def_19 fluent_position_free_p1@1 fluent_position_free_p0@1))) (let ((.def_408 (= .def_407 false))) (let ((.def_409 (=> true .def_408))) (let ((.def_410 (and .def_350 .def_409 .def_406 .def_398 .def_390))) (let ((.def_411 (ite .def_19 fluent_position_free_p1@0 fluent_position_free_p0@0))) (let ((.def_412 (and .def_28 .def_31))) (let ((.def_413 (ite .def_412 fluent_treated_plt1_t0@0 fluent_treated_plt0_t0@0))) (let ((.def_414 (and .def_413 .def_411))) (let ((.def_415 (<= .def_371 t@1))) (let ((.def_416 (< (- 1.0) .def_371))) (let ((.def_417 (and .def_416 .def_415))) (let ((.def_418 (=> .def_417 .def_414))) (let ((.def_419 (not .def_413))) (let ((.def_420 (ite .def_399 fluent_robot_has_r1_plt0@0 fluent_robot_has_r0_plt0@0))) (let ((.def_421 (ite .def_401 fluent_robot_has_r0_plt1@0 .def_420))) (let ((.def_422 (ite .def_403 fluent_robot_has_r1_plt1@0 .def_421))) (let ((.def_423 (and .def_25 .def_20))) (let ((.def_424 (ite .def_423 fluent_robot_at_r1_p0@0 fluent_robot_at_r0_p0@0))) (let ((.def_425 (and .def_26 .def_19))) (let ((.def_426 (ite .def_425 fluent_robot_at_r0_p1@0 .def_424))) (let ((.def_427 (and .def_25 .def_19))) (let ((.def_428 (ite .def_427 fluent_robot_at_r1_p1@0 .def_426))) (let ((.def_429 (and .def_19 .def_31))) (let ((.def_430 (ite .def_429 false true))) (let ((.def_431 (and .def_430 .def_411 .def_428 .def_422 .def_419))) (let ((.def_432 (<= t@1 t@1))) (let ((.def_433 (< (- 1.0) t@1))) (let ((.def_434 (and .def_433 .def_432))) (let ((.def_435 (=> .def_434 .def_431))) (let ((.def_436 (<= dur_make_treatment@1 20.0))) (let ((.def_437 (<= 20.0 dur_make_treatment@1))) (let ((.def_438 (and .def_437 .def_436))) (let ((.def_439 (and .def_438 .def_415 .def_435 .def_418 .def_410 .def_387))) (let ((.def_440 (=> act_make_treatment@1 .def_439))) (let ((.def_441 (and .def_41 .def_36))) (let ((.def_442 (ite .def_441 fluent_robot_has_r1_plt0@1 fluent_robot_has_r0_plt0@1))) (let ((.def_443 (and .def_42 .def_35))) (let ((.def_444 (ite .def_443 fluent_robot_has_r0_plt1@1 .def_442))) (let ((.def_445 (and .def_41 .def_35))) (let ((.def_446 (ite .def_445 fluent_robot_has_r1_plt1@1 .def_444))) (let ((.def_447 (= .def_446 false))) (let ((.def_448 (=> true .def_447))) (let ((.def_449 (ite .def_41 fluent_robot_free_r1@1 fluent_robot_free_r0@1))) (let ((.def_450 (= .def_449 true))) (let ((.def_451 (=> true .def_450))) (let ((.def_452 (and .def_35 .def_48))) (let ((.def_453 (ite .def_452 fluent_pallet_at_plt1_p0@1 fluent_pallet_at_plt0_p0@1))) (let ((.def_454 (and .def_36 .def_47))) (let ((.def_455 (ite .def_454 fluent_pallet_at_plt0_p1@1 .def_453))) (let ((.def_456 (and .def_35 .def_47))) (let ((.def_457 (ite .def_456 fluent_pallet_at_plt1_p1@1 .def_455))) (let ((.def_458 (= .def_457 true))) (let ((.def_459 (=> true .def_458))) (let ((.def_460 (ite .def_441 fluent_robot_has_r1_plt0@0 fluent_robot_has_r0_plt0@0))) (let ((.def_461 (ite .def_443 fluent_robot_has_r0_plt1@0 .def_460))) (let ((.def_462 (ite .def_445 fluent_robot_has_r1_plt1@0 .def_461))) (let ((.def_463 (and .def_41 .def_48))) (let ((.def_464 (ite .def_463 fluent_robot_at_r1_p0@0 fluent_robot_at_r0_p0@0))) (let ((.def_465 (and .def_42 .def_47))) (let ((.def_466 (ite .def_465 fluent_robot_at_r0_p1@0 .def_464))) (let ((.def_467 (and .def_41 .def_47))) (let ((.def_468 (ite .def_467 fluent_robot_at_r1_p1@0 .def_466))) (let ((.def_469 (ite .def_47 true false))) (let ((.def_470 (and .def_469 .def_468 .def_462 .def_459 .def_451 .def_448))) (let ((.def_471 (=> act_unload_at_depot@1 .def_470))) (let ((.def_472 (and .def_4 .def_11))) (let ((.def_473 (ite .def_472 fluent_pallet_at_plt1_p0@1 fluent_pallet_at_plt0_p0@1))) (let ((.def_474 (and .def_5 .def_10))) (let ((.def_475 (ite .def_474 fluent_pallet_at_plt0_p1@1 .def_473))) (let ((.def_476 (and .def_4 .def_10))) (let ((.def_477 (ite .def_476 fluent_pallet_at_plt1_p1@1 .def_475))) (let ((.def_478 (= .def_477 false))) (let ((.def_479 (=> true .def_478))) (let ((.def_480 (and .def_7 .def_5))) (let ((.def_481 (ite .def_480 fluent_robot_has_r1_plt0@1 fluent_robot_has_r0_plt0@1))) (let ((.def_482 (and .def_8 .def_4))) (let ((.def_483 (ite .def_482 fluent_robot_has_r0_plt1@1 .def_481))) (let ((.def_484 (and .def_7 .def_4))) (let ((.def_485 (ite .def_484 fluent_robot_has_r1_plt1@1 .def_483))) (let ((.def_486 (= .def_485 true))) (let ((.def_487 (=> true .def_486))) (let ((.def_488 (ite .def_7 fluent_robot_free_r1@1 fluent_robot_free_r0@1))) (let ((.def_489 (= .def_488 false))) (let ((.def_490 (=> true .def_489))) (let ((.def_491 (ite .def_472 fluent_pallet_at_plt1_p0@0 fluent_pallet_at_plt0_p0@0))) (let ((.def_492 (ite .def_474 fluent_pallet_at_plt0_p1@0 .def_491))) (let ((.def_493 (ite .def_476 fluent_pallet_at_plt1_p1@0 .def_492))) (let ((.def_494 (ite .def_7 fluent_robot_free_r1@0 fluent_robot_free_r0@0))) (let ((.def_495 (and .def_7 .def_11))) (let ((.def_496 (ite .def_495 fluent_robot_at_r1_p0@0 fluent_robot_at_r0_p0@0))) (let ((.def_497 (and .def_8 .def_10))) (let ((.def_498 (ite .def_497 fluent_robot_at_r0_p1@0 .def_496))) (let ((.def_499 (and .def_7 .def_10))) (let ((.def_500 (ite .def_499 fluent_robot_at_r1_p1@0 .def_498))) (let ((.def_501 (ite .def_10 true false))) (let ((.def_502 (and .def_501 .def_500 .def_494 .def_493 .def_490 .def_487 .def_479))) (let ((.def_503 (=> act_load_at_depot@1 .def_502))) (let ((.def_504 (ite .def_44 fluent_position_free_p1@1 fluent_position_free_p0@1))) (let ((.def_505 (= .def_504 true))) (let ((.def_506 (=> true .def_505))) (let ((.def_507 (and .def_38 .def_50))) (let ((.def_508 (ite .def_507 fluent_treated_plt1_t0@1 fluent_treated_plt0_t0@1))) (let ((.def_509 (= .def_508 true))) (let ((.def_510 (=> true .def_509))) (let ((.def_511 (and .def_32 .def_39))) (let ((.def_512 (ite .def_511 fluent_robot_has_r1_plt0@1 fluent_robot_has_r0_plt0@1))) (let ((.def_513 (and .def_33 .def_38))) (let ((.def_514 (ite .def_513 fluent_robot_has_r0_plt1@1 .def_512))) (let ((.def_515 (and .def_32 .def_38))) (let ((.def_516 (ite .def_515 fluent_robot_has_r1_plt1@1 .def_514))) (let ((.def_517 (= .def_516 true))) (let ((.def_518 (=> true .def_517))) (let ((.def_519 (and .def_38 .def_45))) (let ((.def_520 (ite .def_519 fluent_pallet_at_plt1_p0@1 fluent_pallet_at_plt0_p0@1))) (let ((.def_521 (and .def_39 .def_44))) (let ((.def_522 (ite .def_521 fluent_pallet_at_plt0_p1@1 .def_520))) (let ((.def_523 (and .def_38 .def_44))) (let ((.def_524 (ite .def_523 fluent_pallet_at_plt1_p1@1 .def_522))) (let ((.def_525 (= .def_524 false))) (let ((.def_526 (=> true .def_525))) (let ((.def_527 (and .def_38 .def_45 .def_50))) (let ((.def_528 (ite .def_527 fluent_ready_plt1_p0_t0@1 fluent_ready_plt0_p0_t0@1))) (let ((.def_529 (and .def_39 .def_44 .def_50))) (let ((.def_530 (ite .def_529 fluent_ready_plt0_p1_t0@1 .def_528))) (let ((.def_531 (and .def_38 .def_44 .def_50))) (let ((.def_532 (ite .def_531 fluent_ready_plt1_p1_t0@1 .def_530))) (let ((.def_533 (= .def_532 false))) (let ((.def_534 (=> true .def_533))) (let ((.def_535 (ite .def_32 fluent_robot_free_r1@1 fluent_robot_free_r0@1))) (let ((.def_536 (= .def_535 false))) (let ((.def_537 (=> true .def_536))) (let ((.def_538 (ite .def_519 fluent_pallet_at_plt1_p0@0 fluent_pallet_at_plt0_p0@0))) (let ((.def_539 (ite .def_521 fluent_pallet_at_plt0_p1@0 .def_538))) (let ((.def_540 (ite .def_523 fluent_pallet_at_plt1_p1@0 .def_539))) (let ((.def_541 (ite .def_32 fluent_robot_free_r1@0 fluent_robot_free_r0@0))) (let ((.def_542 (and .def_32 .def_45))) (let ((.def_543 (ite .def_542 fluent_robot_at_r1_p0@0 fluent_robot_at_r0_p0@0))) (let ((.def_544 (and .def_33 .def_44))) (let ((.def_545 (ite .def_544 fluent_robot_at_r0_p1@0 .def_543))) (let ((.def_546 (and .def_32 .def_44))) (let ((.def_547 (ite .def_546 fluent_robot_at_r1_p1@0 .def_545))) (let ((.def_548 (ite .def_527 fluent_ready_plt1_p0_t0@0 fluent_ready_plt0_p0_t0@0))) (let ((.def_549 (ite .def_529 fluent_ready_plt0_p1_t0@0 .def_548))) (let ((.def_550 (ite .def_531 fluent_ready_plt1_p1_t0@0 .def_549))) (let ((.def_551 (and .def_550 .def_547 .def_541 .def_540 .def_537 .def_534 .def_526 .def_518 .def_510 .def_506))) (let ((.def_552 (=> act_load@1 .def_551))) (let ((.def_553 (and .def_16 .def_23))) (let ((.def_554 (ite .def_553 1.0 0.0))) (let ((.def_555 (and .def_17 .def_22))) (let ((.def_556 (ite .def_555 1.0 .def_554))) (let ((.def_557 (and .def_16 .def_22))) (let ((.def_558 (ite .def_557 0.0 .def_556))) (let ((.def_559 (ite .def_13 fluent_battery_level_r1@0 fluent_battery_level_r0@0))) (let ((.def_560 (- .def_559 .def_558))) (let ((.def_561 (ite .def_13 fluent_battery_level_r1@1 fluent_battery_level_r0@1))) (let ((.def_562 (= .def_561 .def_560))) (let ((.def_563 (=> true .def_562))) (let ((.def_564 (and .def_13 .def_17))) (let ((.def_565 (ite .def_564 fluent_robot_at_r1_p0@1 fluent_robot_at_r0_p0@1))) (let ((.def_566 (and .def_14 .def_16))) (let ((.def_567 (ite .def_566 fluent_robot_at_r0_p1@1 .def_565))) (let ((.def_568 (and .def_13 .def_16))) (let ((.def_569 (ite .def_568 fluent_robot_at_r1_p1@1 .def_567))) (let ((.def_570 (= .def_569 false))) (let ((.def_571 (=> true .def_570))) (let ((.def_572 (and .def_13 .def_23))) (let ((.def_573 (ite .def_572 fluent_robot_at_r1_p0@1 fluent_robot_at_r0_p0@1))) (let ((.def_574 (and .def_14 .def_22))) (let ((.def_575 (ite .def_574 fluent_robot_at_r0_p1@1 .def_573))) (let ((.def_576 (and .def_13 .def_22))) (let ((.def_577 (ite .def_576 fluent_robot_at_r1_p1@1 .def_575))) (let ((.def_578 (= .def_577 true))) (let ((.def_579 (=> true .def_578))) (let ((.def_580 (<= .def_558 .def_559))) (let ((.def_581 (ite .def_564 fluent_robot_at_r1_p0@0 fluent_robot_at_r0_p0@0))) (let ((.def_582 (ite .def_566 fluent_robot_at_r0_p1@0 .def_581))) (let ((.def_583 (ite .def_568 fluent_robot_at_r1_p1@0 .def_582))) (let ((.def_584 (= parameter_move_frompos@1 parameter_move_topos@1))) (let ((.def_585 (not .def_584))) (let ((.def_586 (and .def_585 .def_583 .def_580 .def_579 .def_571 .def_563))) (let ((.def_587 (=> act_move@1 .def_586))) (let ((.def_588 (<= fluent_battery_level_r1@0 100.0))) (let ((.def_589 (<= 0.0 fluent_battery_level_r1@0))) (let ((.def_590 (<= fluent_battery_level_r0@0 100.0))) (let ((.def_591 (<= 0.0 fluent_battery_level_r0@0))) (let ((.def_592 (= false false))) (let ((.def_593 (= fluent_pallet_at_plt1_p0@0 false))) (let ((.def_594 (= fluent_pallet_at_plt0_p0@0 false))) (let ((.def_595 (= fluent_treated_plt1_t0@0 false))) (let ((.def_596 (= fluent_treated_plt0_t0@0 false))) (let ((.def_597 (= fluent_ready_plt1_p1_t0@0 false))) (let ((.def_598 (= fluent_ready_plt0_p1_t0@0 false))) (let ((.def_599 (= fluent_ready_plt1_p0_t0@0 false))) (let ((.def_600 (= fluent_ready_plt0_p0_t0@0 false))) (let ((.def_601 (= fluent_robot_has_r1_plt1@0 false))) (let ((.def_602 (= fluent_robot_has_r0_plt1@0 false))) (let ((.def_603 (= fluent_robot_has_r1_plt0@0 false))) (let ((.def_604 (= fluent_robot_has_r0_plt0@0 false))) (let ((.def_605 (= fluent_robot_at_r1_p0@0 false))) (let ((.def_606 (= fluent_robot_at_r0_p0@0 false))) (let ((.def_607 (= true true))) (let ((.def_608 (= fluent_position_free_p1@0 true))) (let ((.def_609 (= fluent_position_free_p0@0 true))) (let ((.def_610 (= 0.0 0.0))) (let ((.def_611 (= 1.0 1.0))) (let ((.def_612 (= fluent_battery_level_r1@0 8.0))) (let ((.def_613 (= fluent_battery_level_r0@0 8.0))) (let ((.def_614 (= fluent_pallet_at_plt1_p1@0 true))) (let ((.def_615 (= fluent_pallet_at_plt0_p1@0 true))) (let ((.def_616 (= fluent_robot_free_r1@0 true))) (let ((.def_617 (= fluent_robot_at_r1_p1@0 true))) (let ((.def_618 (= fluent_robot_free_r0@0 true))) (let ((.def_619 (= fluent_robot_at_r0_p1@0 true))) (let ((.def_620 (and .def_619 .def_618 .def_617 .def_616 .def_615 .def_614 .def_613 .def_612 .def_610 .def_611 .def_611 .def_610 .def_607 .def_609 .def_608 .def_607 .def_606 .def_605 .def_604 .def_603 .def_602 .def_601 .def_600 .def_599 .def_598 .def_597 .def_596 .def_595 .def_594 .def_593 .def_592 .def_592 .def_591 .def_590 .def_589 .def_588))) (let ((.def_621 (and .def_620 .def_587 .def_552 .def_503 .def_471 .def_440 .def_378 .def_377 true .def_349 .def_50 .def_49 .def_46 .def_43 .def_40 .def_37 .def_34 .def_31 .def_30 .def_27 .def_24 .def_21 .def_18 .def_15 .def_12 .def_9 .def_6 .def_3 .def_2 .def_1 .def_0 true))) .def_621)))))))))))))))))))))))))))))))))))))))))))))))))))))))))))))))))))))))))))))))))))))))))))))))))))))))))))))))))))))))))))))))))))))))))))))))))))))))))))))))))))))))))))))))))))))))))))))))))))))))))))))))))))))))))))))))))))))))))))))))))))))))))))))))))))))))))))))))))))))))))))))))))))))))))))))))))))))))))))))))))))))))))))))))))))))))))))))))))))))))))))))))))))))))))))))))))))))))))))))))))))))))))))))))))))))))))))))))))))))))))))))))))))))))))))))))))))))))))))))))))))))))))))))))))))))))))))))))))))))))))))))))))))))))))))))))))))))))))))))))))))))))))))))))))))))))))))))))))))))))))))))))))))))))))))))))
(check-sat)

--------------------------------------------------------------------------------
